50 8
411 687
105 271
495 772
807 250
299 421
648 686
70 231
651 494
112 199
558 268
115 567
646 542
152 537
111 464
410 372
246 377
659 641
702 189
492 253
424 889
158 191
69 753
679 457
518 518
356 788
266 435
321 877
390 555
385 758
573 470
119 570
103 406
52 253
810 266
326 858
853 374
709 539
230 481
82 542
586 693
245 445
223 359
235 308
442 216
701 801
449 675
214 812
344 782
89 481
184 868
